c
c
c
c
c
18 171
0 0 -1
0 1 29
0 2 4
0 3 24
0 4 1
0 5 15
0 6 6
0 7 24
0 8 23
0 9 11
0 10 8
0 11 23
0 12 11
0 13 16
0 14 1
0 15 1
0 16 27
0 17 13
1 1 -1
1 2 1
1 3 28
1 4 15
1 5 12
1 6 19
1 7 27
1 8 30
1 9 1
1 10 26
1 11 16
1 12 23
1 13 5
1 14 2
1 15 27
1 16 23
1 17 9
2 2 -1
2 3 1
2 4 9
2 5 4
2 6 30
2 7 27
2 8 30
2 9 21
2 10 26
2 11 13
2 12 24
2 13 25
2 14 6
2 15 11
2 16 24
2 17 26
3 3 -1
3 4 26
3 5 16
3 6 16
3 7 5
3 8 19
3 9 24
3 10 4
3 11 5
3 12 21
3 13 12
3 14 17
3 15 25
3 16 4
3 17 11
4 4 -1
4 5 30
4 6 26
4 7 20
4 8 30
4 9 21
4 10 28
4 11 28
4 12 16
4 13 8
4 14 14
4 15 7
4 16 6
4 17 13
5 5 -1
5 6 16
5 7 4
5 8 14
5 9 4
5 10 28
5 11 6
5 12 8
5 13 7
5 14 18
5 15 27
5 16 30
5 17 15
6 6 -1
6 7 3
6 8 2
6 9 16
6 10 1
6 11 7
6 12 5
6 13 12
6 14 1
6 15 1
6 16 5
6 17 7
7 7 -1
7 8 28
7 9 5
7 10 30
7 11 23
7 12 16
7 13 14
7 14 23
7 15 17
7 16 13
7 17 4
8 8 -1
8 9 28
8 10 24
8 11 1
8 12 8
8 13 27
8 14 17
8 15 20
8 16 19
8 17 12
9 9 -1
9 10 27
9 11 11
9 12 14
9 13 29
9 14 25
9 15 1
9 16 18
9 17 19
10 10 -1
10 11 5
10 12 5
10 13 21
10 14 10
10 15 16
10 16 19
10 17 22
11 11 -1
11 12 20
11 13 12
11 14 23
11 15 18
11 16 3
11 17 25
12 12 -1
12 13 2
12 14 14
12 15 6
12 16 29
12 17 7
13 13 -1
13 14 18
13 15 19
13 16 23
13 17 8
14 14 -1
14 15 14
14 16 6
14 17 30
15 15 -1
15 16 27
15 17 3
16 16 -1
16 17 16
17 17 -1
